certificates/rado_a15_c101_N42.cnf
c Rad2 upper bound instance: x1 + 15*x2 - x3 = 101, interval [1,42]
p cnf 42 234
1 5 7 0
-1 -5 -7 0
1 8 20 0
-1 -8 -20 0
1 9 35 0
-1 -9 -35 0
2 6 7 0
-2 -6 -7 0
2 8 21 0
-2 -8 -21 0
2 9 36 0
-2 -9 -36 0
3 7 0
-3 -7 0
3 8 22 0
-3 -8 -22 0
3 9 37 0
-3 -9 -37 0
4 7 8 0
-4 -7 -8 0
4 8 23 0
-4 -8 -23 0
4 9 38 0
-4 -9 -38 0
5 7 9 0
-5 -7 -9 0
5 8 24 0
-5 -8 -24 0
5 9 39 0
-5 -9 -39 0
6 7 10 0
-6 -7 -10 0
6 8 25 0
-6 -8 -25 0
6 9 40 0
-6 -9 -40 0
7 11 0
-7 -11 0
7 8 26 0
-7 -8 -26 0
7 9 41 0
-7 -9 -41 0
7 8 12 0
-7 -8 -12 0
8 27 0
-8 -27 0
8 9 42 0
-8 -9 -42 0
7 9 13 0
-7 -9 -13 0
8 9 28 0
-8 -9 -28 0
7 10 14 0
-7 -10 -14 0
8 10 29 0
-8 -10 -29 0
7 11 15 0
-7 -11 -15 0
8 11 30 0
-8 -11 -30 0
1 6 12 0
-1 -6 -12 0
7 12 16 0
-7 -12 -16 0
8 12 31 0
-8 -12 -31 0
2 6 13 0
-2 -6 -13 0
7 13 17 0
-7 -13 -17 0
8 13 32 0
-8 -13 -32 0
3 6 14 0
-3 -6 -14 0
7 14 18 0
-7 -14 -18 0
8 14 33 0
-8 -14 -33 0
4 6 15 0
-4 -6 -15 0
7 15 19 0
-7 -15 -19 0
8 15 34 0
-8 -15 -34 0
5 6 16 0
-5 -6 -16 0
7 16 20 0
-7 -16 -20 0
8 16 35 0
-8 -16 -35 0
6 17 0
-6 -17 0
7 17 21 0
-7 -17 -21 0
8 17 36 0
-8 -17 -36 0
6 7 18 0
-6 -7 -18 0
7 18 22 0
-7 -18 -22 0
8 18 37 0
-8 -18 -37 0
6 8 19 0
-6 -8 -19 0
7 19 23 0
-7 -19 -23 0
8 19 38 0
-8 -19 -38 0
6 9 20 0
-6 -9 -20 0
7 20 24 0
-7 -20 -24 0
8 20 39 0
-8 -20 -39 0
6 10 21 0
-6 -10 -21 0
7 21 25 0
-7 -21 -25 0
8 21 40 0
-8 -21 -40 0
6 11 22 0
-6 -11 -22 0
7 22 26 0
-7 -22 -26 0
8 22 41 0
-8 -22 -41 0
6 12 23 0
-6 -12 -23 0
7 23 27 0
-7 -23 -27 0
8 23 42 0
-8 -23 -42 0
6 13 24 0
-6 -13 -24 0
7 24 28 0
-7 -24 -28 0
6 14 25 0
-6 -14 -25 0
7 25 29 0
-7 -25 -29 0
6 15 26 0
-6 -15 -26 0
7 26 30 0
-7 -26 -30 0
1 5 27 0
-1 -5 -27 0
6 16 27 0
-6 -16 -27 0
7 27 31 0
-7 -27 -31 0
2 5 28 0
-2 -5 -28 0
6 17 28 0
-6 -17 -28 0
7 28 32 0
-7 -28 -32 0
3 5 29 0
-3 -5 -29 0
6 18 29 0
-6 -18 -29 0
7 29 33 0
-7 -29 -33 0
4 5 30 0
-4 -5 -30 0
6 19 30 0
-6 -19 -30 0
7 30 34 0
-7 -30 -34 0
5 31 0
-5 -31 0
6 20 31 0
-6 -20 -31 0
7 31 35 0
-7 -31 -35 0
5 6 32 0
-5 -6 -32 0
6 21 32 0
-6 -21 -32 0
7 32 36 0
-7 -32 -36 0
5 7 33 0
-5 -7 -33 0
6 22 33 0
-6 -22 -33 0
7 33 37 0
-7 -33 -37 0
5 8 34 0
-5 -8 -34 0
6 23 34 0
-6 -23 -34 0
7 34 38 0
-7 -34 -38 0
5 9 35 0
-5 -9 -35 0
6 24 35 0
-6 -24 -35 0
7 35 39 0
-7 -35 -39 0
5 10 36 0
-5 -10 -36 0
6 25 36 0
-6 -25 -36 0
7 36 40 0
-7 -36 -40 0
5 11 37 0
-5 -11 -37 0
6 26 37 0
-6 -26 -37 0
7 37 41 0
-7 -37 -41 0
5 12 38 0
-5 -12 -38 0
6 27 38 0
-6 -27 -38 0
7 38 42 0
-7 -38 -42 0
5 13 39 0
-5 -13 -39 0
6 28 39 0
-6 -28 -39 0
5 14 40 0
-5 -14 -40 0
6 29 40 0
-6 -29 -40 0
5 15 41 0
-5 -15 -41 0
6 30 41 0
-6 -30 -41 0
1 4 42 0
-1 -4 -42 0
5 16 42 0
-5 -16 -42 0
6 31 42 0
-6 -31 -42 0
