certificates/rado_a15_c101_N42.drat
-37 7 0
9 7 -39 0
-38 -39 -42 0
-9 -39 -41 -42 0
-39 -41 -42 0
d -9 -39 -41 -42 0
-7 9 -41 0
9 -40 39 -41 0
-9 39 -41 0
39 -41 0
d -9 39 -41 0
-41 -42 0
d -39 -41 -42 0
9 39 -42 0
-7 -20 8 -9 0
7 41 0
d 37 7 41 0
39 -42 0
d 9 39 -42 0
-9 -42 0
-7 -42 0
d -38 -7 -42 0
-42 0
9 35 -7 0
-39 -7 0
-9 -7 0
d -20 8 -7 -9 0
-7 0
3 0
11 0
38 0
41 0
-37 0
39 0
33 0
9 0
-5 0
-4 0
1 0
31 0
16 0
8 0
30 0
-35 0
-20 0
-22 0
-27 0
-28 0
0
